NAME: test1364
TYPE: TSP
DIMENSION: 11
EDGE_WEIGHT_TYPE: EUC_2D
NODE_COORD_SECTION
1 50.4424585615053 52.64564120889459
2 36.47396804134275 42.462712338939156
3 25.87667276162089 74.85711716714184
4 34.58022813785339 38.14635675923901
5 44.39304744731635 4.465826484376246
6 19.643623139054288 55.52110442788057
7 61.98137588502751 21.597823038649345
8 53.28856136634861 11.751691515565188
9 42.68135881981278 29.83919501025727
10 83.96582050450301 24.572274680849006
11 21.564865061547998 28.932275821860276
EOF
